8
-1 29 82 46 68 52 72 42
29 -1 55 46 42 43 43 23
82 55 -1 68 46 55 23 43
46 46 68 -1 82 15 72 31
68 42 46 82 -1 74 23 52
52 43 55 15 74 -1 61 23
72 43 23 72 23 61 -1 42
42 23 43 31 52 23 42 -1

